rcpsp/heur_output_log_0/heurj120.txt
encoding rcpsp/j120.sm/j12046_4.sm nv: 1340409 nc: 2914570 enctime: 38.08
encoding rcpsp/j120.sm/j12046_4.sm nv: 430331 nc: 932200 enctime: 6.24
c File: j12046_4.smnaiveor1000.wcnf
c timeout
c final solution cost: 257
c CPU time: 65.985885
s UNKNOWN

c File: j12046_4.smor1000.wcnf
c timeout
c final solution cost: 192
c CPU time: 61.021431
s UNKNOWN


rcpsp/heur_output_log_0/heurj120.txt
encoding rcpsp/j120.sm/j12046_5.sm nv: 1405488 nc: 3053865 enctime: 38.36
encoding rcpsp/j120.sm/j12046_5.sm nv: 397296 nc: 859537 enctime: 5.88
c File: j12046_5.smnaiveor1000.wcnf
c timeout
c final solution cost: 166
c CPU time: 66.154809
s UNKNOWN

c File: j12046_5.smor1000.wcnf
c timeout
c final solution cost: 172
c CPU time: 60.886917
s UNKNOWN


rcpsp/heur_output_log_0/heurj120.txt
encoding rcpsp/j120.sm/j12046_6.sm nv: 1184400 nc: 2555609 enctime: 32.50
encoding rcpsp/j120.sm/j12046_6.sm nv: 436254 nc: 938416 enctime: 6.47
c File: j12046_6.smnaiveor1000.wcnf
c timeout
c final solution cost: 189
c CPU time: 65.215845
s UNKNOWN

c File: j12046_6.smor1000.wcnf
c timeout
c final solution cost: 189
c CPU time: 61.067407
s UNKNOWN


rcpsp/heur_output_log_0/heurj120.txt
encoding rcpsp/j120.sm/j12046_7.sm nv: 1327656 nc: 2883458 enctime: 36.20
encoding rcpsp/j120.sm/j12046_7.sm nv: 397056 nc: 858908 enctime: 5.90
c File: j12046_7.smnaiveor1000.wcnf
c timeout
c final solution cost: 188
c CPU time: 65.799063
s UNKNOWN

c File: j12046_7.smor1000.wcnf
c timeout
c final solution cost: 182
c CPU time: 60.922976
s UNKNOWN


rcpsp/heur_output_log_0/heurj120.txt
encoding rcpsp/j120.sm/j12046_8.sm nv: 1295160 nc: 2820006 enctime: 36.22
encoding rcpsp/j120.sm/j12046_8.sm nv: 427704 nc: 927846 enctime: 6.43
c File: j12046_8.smnaiveor1000.wcnf
c timeout
c final solution cost: 200
c CPU time: 65.772394
s UNKNOWN

c File: j12046_8.smor1000.wcnf
c timeout
c final solution cost: 194
c CPU time: 61.038608
s UNKNOWN


rcpsp/heur_output_log_0/heurj120.txt
encoding rcpsp/j120.sm/j12046_9.sm nv: 1415400 nc: 3089582 enctime: 39.61
encoding rcpsp/j120.sm/j12046_9.sm nv: 422100 nc: 917566 enctime: 6.23
c File: j12046_9.smnaiveor1000.wcnf
c timeout
c final solution cost: 232
c CPU time: 66.490894
s UNKNOWN

c File: j12046_9.smor1000.wcnf
c timeout
c final solution cost: 181
c CPU time: 60.975414
s UNKNOWN


rcpsp/heur_output_log_0/heurj120.txt
encoding rcpsp/j120.sm/j1204_6.sm nv: 937764 nc: 2086557 enctime: 27.17
encoding rcpsp/j120.sm/j1204_6.sm nv: 128874 nc: 282337 enctime: 1.30
c File: j1204_6.smnaiveor1000.wcnf
c optimal
c final solution cost: 90
c CPU time: 7.335785
s OPTIMUM FOUND

c File: j1204_6.smor1000.wcnf
c optimal
c final solution cost: 90
c CPU time: 0.451963
s OPTIMUM FOUND


rcpsp/heur_output_log_0/heurj120.txt
encoding rcpsp/j120.sm/j12047_10.sm nv: 1963080 nc: 4181153 enctime: 48.92
encoding rcpsp/j120.sm/j12047_10.sm nv: 433370 nc: 918660 enctime: 6.10
c File: j12047_10.smnaiveor1000.wcnf
c timeout
c final solution cost: 370
c CPU time: 67.442204
s UNKNOWN

c File: j12047_10.smor1000.wcnf
c timeout
c final solution cost: 137
c CPU time: 60.826746
s UNKNOWN


rcpsp/heur_output_log_0/heurj120.txt
encoding rcpsp/j120.sm/j12047_1.sm nv: 1621710 nc: 3487948 enctime: 41.74
encoding rcpsp/j120.sm/j12047_1.sm nv: 404210 nc: 865448 enctime: 5.65
c File: j12047_1.smnaiveor1000.wcnf
c timeout
c final solution cost: 172
c CPU time: 66.589103
s UNKNOWN

c File: j12047_1.smor1000.wcnf
c timeout
c final solution cost: 155
c CPU time: 60.831026
s UNKNOWN


rcpsp/heur_output_log_0/heurj120.txt
encoding rcpsp/j120.sm/j12047_2.sm nv: 1737386 nc: 3690349 enctime: 42.58
encoding rcpsp/j120.sm/j12047_2.sm nv: 432320 nc: 914548 enctime: 5.99
c File: j12047_2.smnaiveor1000.wcnf
c timeout
c final solution cost: 479
c CPU time: 66.215066
s UNKNOWN

c File: j12047_2.smor1000.wcnf
c timeout
c final solution cost: 141
c CPU time: 60.814745
s UNKNOWN


rcpsp/heur_output_log_0/heurj120.txt
encoding rcpsp/j120.sm/j12047_3.sm nv: 2084418 nc: 4440026 enctime: 52.15
encoding rcpsp/j120.sm/j12047_3.sm nv: 429408 nc: 910226 enctime: 5.94
c File: j12047_3.smnaiveor1000.wcnf
c timeout
c final solution cost: 131
c CPU time: 67.505124
s UNKNOWN

c File: j12047_3.smor1000.wcnf
c timeout
c final solution cost: 131
c CPU time: 60.807176
s UNKNOWN


rcpsp/heur_output_log_0/heurj120.txt
encoding rcpsp/j120.sm/j12047_4.sm nv: 1708686 nc: 3630227 enctime: 41.63
encoding rcpsp/j120.sm/j12047_4.sm nv: 435862 nc: 922263 enctime: 5.98
c File: j12047_4.smnaiveor1000.wcnf
c timeout
c final solution cost: 149
c CPU time: 66.376028
s UNKNOWN

c File: j12047_4.smor1000.wcnf
c timeout
c final solution cost: 147
c CPU time: 60.845370
s UNKNOWN


rcpsp/heur_output_log_0/heurj120.txt
encoding rcpsp/j120.sm/j12047_5.sm nv: 1702197 nc: 3637112 enctime: 42.25
encoding rcpsp/j120.sm/j12047_5.sm nv: 400365 nc: 851504 enctime: 5.50
c File: j12047_5.smnaiveor1000.wcnf
c timeout
c final solution cost: 135
c CPU time: 66.492654
s UNKNOWN

c File: j12047_5.smor1000.wcnf
c timeout
c final solution cost: 133
c CPU time: 60.779346
s UNKNOWN


rcpsp/heur_output_log_0/heurj120.txt
encoding rcpsp/j120.sm/j12047_6.sm nv: 1778394 nc: 3811613 enctime: 45.50
encoding rcpsp/j120.sm/j12047_6.sm nv: 411811 nc: 878383 enctime: 5.75
c File: j12047_6.smnaiveor1000.wcnf
c timeout
c final solution cost: 208
c CPU time: 66.786859
s UNKNOWN

c File: j12047_6.smor1000.wcnf
c timeout
c final solution cost: 149
c CPU time: 60.823166
s UNKNOWN


rcpsp/heur_output_log_0/heurj120.txt
encoding rcpsp/j120.sm/j12047_7.sm nv: 1937552 nc: 4109637 enctime: 45.64
encoding rcpsp/j120.sm/j12047_7.sm nv: 408520 nc: 862409 enctime: 5.62
c File: j12047_7.smnaiveor1000.wcnf
c timeout
c final solution cost: 146
c CPU time: 66.874262
s UNKNOWN

c File: j12047_7.smor1000.wcnf
c timeout
c final solution cost: 126
c CPU time: 60.740121
s UNKNOWN


rcpsp/heur_output_log_0/heurj120.txt
encoding rcpsp/j120.sm/j12047_8.sm nv: 1645248 nc: 3521538 enctime: 42.14
encoding rcpsp/j120.sm/j12047_8.sm nv: 428868 nc: 914178 enctime: 6.02
c File: j12047_8.smnaiveor1000.wcnf
c timeout
c final solution cost: 210
c CPU time: 66.614776
s UNKNOWN

c File: j12047_8.smor1000.wcnf
c timeout
c final solution cost: 148
c CPU time: 60.879460
s UNKNOWN


rcpsp/heur_output_log_0/heurj120.txt
encoding rcpsp/j120.sm/j12047_9.sm nv: 1740069 nc: 3724475 enctime: 44.54
encoding rcpsp/j120.sm/j12047_9.sm nv: 447372 nc: 953700 enctime: 6.70
c File: j12047_9.smnaiveor1000.wcnf
c timeout
c final solution cost: 154
c CPU time: 66.810275
s UNKNOWN

c File: j12047_9.smor1000.wcnf
c timeout
c final solution cost: 154
c CPU time: 60.926289
s UNKNOWN


rcpsp/heur_output_log_0/heurj120.txt
encoding rcpsp/j120.sm/j1204_7.sm nv: 976800 nc: 2138272 enctime: 27.51
encoding rcpsp/j120.sm/j1204_7.sm nv: 128760 nc: 277741 enctime: 1.35
c File: j1204_7.smnaiveor1000.wcnf
c optimal
c final solution cost: 81
c CPU time: 6.276678
s OPTIMUM FOUND

c File: j1204_7.smor1000.wcnf
c optimal
c final solution cost: 81
c CPU time: 0.379394
s OPTIMUM FOUND


rcpsp/heur_output_log_0/heurj120.txt
encoding rcpsp/j120.sm/j12048_10.sm nv: 1730736 nc: 3644166 enctime: 41.44
encoding rcpsp/j120.sm/j12048_10.sm nv: 364812 nc: 764520 enctime: 5.58
c File: j12048_10.smnaiveor1000.wcnf
c timeout
c final solution cost: 113
c CPU time: 66.102644
s UNKNOWN

c File: j12048_10.smor1000.wcnf
c timeout
c final solution cost: 113
c CPU time: 60.655808
s UNKNOWN


rcpsp/heur_output_log_0/heurj120.txt
encoding rcpsp/j120.sm/j12048_1.sm nv: 2103680 nc: 4413610 enctime: 49.03
encoding rcpsp/j120.sm/j12048_1.sm nv: 378005 nc: 789010 enctime: 5.30
c File: j12048_1.smnaiveor1000.wcnf
c timeout
c final solution cost: 101
c CPU time: 67.112236
s UNKNOWN

c File: j12048_1.smor1000.wcnf
c timeout
c final solution cost: 101
c CPU time: 60.653096
s UNKNOWN


rcpsp/heur_output_log_0/heurj120.txt
encoding rcpsp/j120.sm/j12048_2.sm nv: 1947824 nc: 4095696 enctime: 46.25
encoding rcpsp/j120.sm/j12048_2.sm nv: 369840 nc: 773840 enctime: 5.24
c File: j12048_2.smnaiveor1000.wcnf
c timeout
c final solution cost: 118
c CPU time: 66.620268
s UNKNOWN

c File: j12048_2.smor1000.wcnf
c timeout
c CPU time: 60.577147
s UNKNOWN


rcpsp/heur_output_log_0/heurj120.txt
encoding rcpsp/j120.sm/j12048_3.sm nv: 2252316 nc: 4746520 enctime: 54.70
encoding rcpsp/j120.sm/j12048_3.sm nv: 431860 nc: 905588 enctime: 6.18
c File: j12048_3.smnaiveor1000.wcnf
c timeout
c final solution cost: 121
c CPU time: 67.780661
s UNKNOWN

c File: j12048_3.smor1000.wcnf
c timeout
c final solution cost: 119
c CPU time: 60.788655
s UNKNOWN


rcpsp/heur_output_log_0/heurj120.txt
encoding rcpsp/j120.sm/j12048_4.sm nv: 2224416 nc: 4710497 enctime: 54.90
encoding rcpsp/j120.sm/j12048_4.sm nv: 450636 nc: 949817 enctime: 6.41
c File: j12048_4.smnaiveor1000.wcnf
c timeout
c final solution cost: 137
c CPU time: 67.920021
s UNKNOWN

c File: j12048_4.smor1000.wcnf
c timeout
c final solution cost: 134
c CPU time: 60.843583
s UNKNOWN


rcpsp/heur_output_log_0/heurj120.txt
encoding rcpsp/j120.sm/j12048_5.sm nv: 2285970 nc: 4827997 enctime: 54.47
encoding rcpsp/j120.sm/j12048_5.sm nv: 397560 nc: 835147 enctime: 5.62
c File: j12048_5.smnaiveor1000.wcnf
c timeout
c final solution cost: 115
c CPU time: 67.832837
s UNKNOWN

c File: j12048_5.smor1000.wcnf
c timeout
c final solution cost: 115
c CPU time: 60.711335
s UNKNOWN


rcpsp/heur_output_log_0/heurj120.txt
encoding rcpsp/j120.sm/j12048_6.sm nv: 2385580 nc: 4993212 enctime: 54.09
encoding rcpsp/j120.sm/j12048_6.sm nv: 416300 nc: 866972 enctime: 6.04
c File: j12048_6.smnaiveor1000.wcnf
c timeout
c final solution cost: 109
c CPU time: 67.600494
s UNKNOWN

c File: j12048_6.smor1000.wcnf
c timeout
c final solution cost: 109
c CPU time: 60.730064
s UNKNOWN


rcpsp/heur_output_log_0/heurj120.txt
encoding rcpsp/j120.sm/j12048_7.sm nv: 2226709 nc: 4656800 enctime: 51.41
encoding rcpsp/j120.sm/j12048_7.sm nv: 422486 nc: 879550 enctime: 5.85
c File: j12048_7.smnaiveor1000.wcnf
c timeout
c final solution cost: 111
c CPU time: 67.192100
s UNKNOWN

c File: j12048_7.smor1000.wcnf
c timeout
c final solution cost: 109
c CPU time: 60.734847
s UNKNOWN


rcpsp/heur_output_log_0/heurj120.txt
encoding rcpsp/j120.sm/j12048_8.sm nv: 1861646 nc: 3913883 enctime: 44.44
encoding rcpsp/j120.sm/j12048_8.sm nv: 389090 nc: 814283 enctime: 5.57
c File: j12048_8.smnaiveor1000.wcnf
c timeout
c final solution cost: 118
c CPU time: 66.311633
s UNKNOWN

c File: j12048_8.smor1000.wcnf
c timeout
c final solution cost: 121
c CPU time: 60.695522
s UNKNOWN


rcpsp/heur_output_log_0/heurj120.txt
encoding rcpsp/j120.sm/j12048_9.sm nv: 2104362 nc: 4439001 enctime: 52.48
encoding rcpsp/j120.sm/j12048_9.sm nv: 418968 nc: 879708 enctime: 6.07
c File: j12048_9.smnaiveor1000.wcnf
c timeout
c final solution cost: 117
c CPU time: 67.368294
s UNKNOWN

c File: j12048_9.smor1000.wcnf
c timeout
c final solution cost: 115
c CPU time: 60.744439
s UNKNOWN


rcpsp/heur_output_log_0/heurj120.txt
encoding rcpsp/j120.sm/j1204_8.sm nv: 1018578 nc: 2227514 enctime: 28.13
encoding rcpsp/j120.sm/j1204_8.sm nv: 138138 nc: 297854 enctime: 2.23
c File: j1204_8.smnaiveor1000.wcnf
c optimal
c final solution cost: 90
c CPU time: 6.533904
s OPTIMUM FOUND

c File: j1204_8.smor1000.wcnf
c optimal
c final solution cost: 90
c CPU time: 0.373036
s OPTIMUM FOUND


rcpsp/heur_output_log_0/heurj120.txt
encoding rcpsp/j120.sm/j12049_10.sm nv: 2352288 nc: 4908296 enctime: 54.22
encoding rcpsp/j120.sm/j12049_10.sm nv: 392048 nc: 813941 enctime: 5.47
c File: j12049_10.smnaiveor1000.wcnf
c timeout
c final solution cost: 98
c CPU time: 67.268098
s UNKNOWN

c File: j12049_10.smor1000.wcnf
c timeout
c final solution cost: 99
c CPU time: 60.658978
s UNKNOWN


rcpsp/heur_output_log_0/heurj120.txt
encoding rcpsp/j120.sm/j12049_1.sm nv: 2514876 nc: 5193100 enctime: 54.96
encoding rcpsp/j120.sm/j12049_1.sm nv: 415716 nc: 854530 enctime: 5.95
c File: j12049_1.smnaiveor1000.wcnf
c optimal
c final solution cost: 96
c CPU time: 14.559335
s OPTIMUM FOUND

c File: j12049_1.smor1000.wcnf
c optimal
c final solution cost: 96
c CPU time: 1.922959
s OPTIMUM FOUND


rcpsp/heur_output_log_0/heurj120.txt
encoding rcpsp/j120.sm/j12049_2.sm nv: 2264465 nc: 4771416 enctime: 56.46
encoding rcpsp/j120.sm/j12049_2.sm nv: 443555 nc: 930306 enctime: 6.54
c File: j12049_2.smnaiveor1000.wcnf
c timeout
c final solution cost: 186
c CPU time: 68.140832
s UNKNOWN

c File: j12049_2.smor1000.wcnf
c timeout
c final solution cost: 111
c CPU time: 60.806439
s UNKNOWN


rcpsp/heur_output_log_0/heurj120.txt
encoding rcpsp/j120.sm/j12049_3.sm nv: 2718848 nc: 5697348 enctime: 64.97
encoding rcpsp/j120.sm/j12049_3.sm nv: 405510 nc: 844849 enctime: 6.00
c File: j12049_3.smnaiveor1000.wcnf
c timeout
c final solution cost: 96
c CPU time: 69.132936
s UNKNOWN

c File: j12049_3.smor1000.wcnf
c timeout
c final solution cost: 97
c CPU time: 60.681088
s UNKNOWN


rcpsp/heur_output_log_0/heurj120.txt
encoding rcpsp/j120.sm/j12049_4.sm nv: 2658805 nc: 5511302 enctime: 58.31
encoding rcpsp/j120.sm/j12049_4.sm nv: 458985 nc: 947274 enctime: 6.48
c File: j12049_4.smnaiveor1000.wcnf
c timeout
c final solution cost: 100
c CPU time: 67.787542
s UNKNOWN

c File: j12049_4.smor1000.wcnf
c timeout
c final solution cost: 97
c CPU time: 60.761791
s UNKNOWN


rcpsp/heur_output_log_0/heurj120.txt
encoding rcpsp/j120.sm/j12049_5.sm nv: 2056752 nc: 4234003 enctime: 43.50
encoding rcpsp/j120.sm/j12049_5.sm nv: 368874 nc: 755869 enctime: 3.82
c File: j12049_5.smnaiveor1000.wcnf
c timeout
c final solution cost: 89
c CPU time: 65.822423
s UNKNOWN

c File: j12049_5.smor1000.wcnf
c timeout
c final solution cost: 89
c CPU time: 60.605391
s UNKNOWN


rcpsp/heur_output_log_0/heurj120.txt
encoding rcpsp/j120.sm/j12049_6.sm nv: 2370306 nc: 4971989 enctime: 54.91
encoding rcpsp/j120.sm/j12049_6.sm nv: 486036 nc: 1015129 enctime: 6.76
c File: j12049_6.smnaiveor1000.wcnf
c optimal
c final solution cost: 128
c CPU time: 11.726970
s OPTIMUM FOUND

c File: j12049_6.smor1000.wcnf
c optimal
c final solution cost: 128
c CPU time: 1.601343
s OPTIMUM FOUND


rcpsp/heur_output_log_0/heurj120.txt
encoding rcpsp/j120.sm/j12049_7.sm nv: 2522595 nc: 5242015 enctime: 56.54
encoding rcpsp/j120.sm/j12049_7.sm nv: 430210 nc: 889790 enctime: 6.12
c File: j12049_7.smnaiveor1000.wcnf
c timeout
c final solution cost: 99
c CPU time: 67.653062
s UNKNOWN

c File: j12049_7.smor1000.wcnf
c timeout
c final solution cost: 99
c CPU time: 60.710192
s UNKNOWN


rcpsp/heur_output_log_0/heurj120.txt
encoding rcpsp/j120.sm/j12049_8.sm nv: 2238418 nc: 4725075 enctime: 54.42
encoding rcpsp/j120.sm/j12049_8.sm nv: 411138 nc: 863315 enctime: 5.87
c File: j12049_8.smnaiveor1000.wcnf
c timeout
c final solution cost: 114
c CPU time: 67.794768
s UNKNOWN

c File: j12049_8.smor1000.wcnf
c timeout
c final solution cost: 113
c CPU time: 60.736032
s UNKNOWN


rcpsp/heur_output_log_0/heurj120.txt
encoding rcpsp/j120.sm/j12049_9.sm nv: 2657220 nc: 5534227 enctime: 59.13
encoding rcpsp/j120.sm/j12049_9.sm nv: 424362 nc: 879343 enctime: 5.94
c File: j12049_9.smnaiveor1000.wcnf
c optimal
c final solution cost: 97
c CPU time: 37.931813
s OPTIMUM FOUND

c File: j12049_9.smor1000.wcnf
c optimal
c final solution cost: 97
c CPU time: 10.396261
s OPTIMUM FOUND


rcpsp/heur_output_log_0/heurj120.txt
encoding rcpsp/j120.sm/j1204_9.sm nv: 899580 nc: 1962399 enctime: 24.79
encoding rcpsp/j120.sm/j1204_9.sm nv: 114210 nc: 245168 enctime: 1.88
c File: j1204_9.smnaiveor1000.wcnf
c optimal
c final solution cost: 79
c CPU time: 5.824247
s OPTIMUM FOUND

c File: j1204_9.smor1000.wcnf
c optimal
c final solution cost: 79
c CPU time: 0.348984
s OPTIMUM FOUND


